N = 36;
MinK = 6;
Capacity = 100;

X = array1d(0..36, [86, 29, 4, 25, 67, 13, 62, 84, 34, 19, 42, 40, 25, 63, 75, 61, 87, 54, 66, 46, 47, 21, 19, 1, 94, 82, 41, 100, 1, 96, 57, 47, 68, 16, 51, 83, 84]);
Y = array1d(0..36, [22, 17, 50, 13, 37, 7, 15, 38, 3, 45, 76, 86, 94, 57, 24, 85, 38, 39, 34, 39, 17, 54, 83, 82, 28, 72, 59, 77, 57, 7, 82, 38, 89, 36, 38, 74, 2]);

Demands = [1, 23, 23, 5, 7, 18, 12, 20, 19, 19, 16, 2, 26, 13, 19, 17, 14, 8, 10, 5, 19, 12, 9, 18, 4, 20, 8, 3, 18, 26, 21, 21, 8, 19, 66, 21];
